NAME : rcdp205.1297649.tour
COMMENT : Cost = 0_1297649
COMMENT : Found by LKH [Keld Helsgaun] Thu Sep 14 20:06:16 2017
TYPE : TOUR
DIMENSION : 104
TOUR_SECTION
1
3
46
6
43
40
37
73
72
63
95
62
45
41
39
42
82
91
54
99
56
69
44
36
38
55
97
94
92
81
103
93
96
34
29
28
30
32
31
64
77
86
68
85
52
50
23
21
25
75
14
18
61
102
66
84
65
20
24
22
19
58
87
53
100
10
88
60
76
98
11
67
57
51
35
33
27
90
49
26
78
59
104
70
83
12
16
17
48
15
13
89
79
74
80
8
7
9
47
5
4
2
71
101
-1
EOF
